; benchmark generated from python API
(set-info :status unknown)
(declare-fun x_months () (_ BitVec 32))
(declare-fun x_beta () (_ BitVec 32))
(declare-fun y_months () (_ BitVec 32))
(declare-fun y_beta () (_ BitVec 32))
(assert
 (bvsle (_ bv4294966096 32) x_months))
(assert
 (bvsge (_ bv1199 32) x_months))
(assert
 (bvsle (_ bv0 32) x_beta))
(assert
 (let ((?x54519 (bvadd x_months (_ bv24003 32))))
 (let ((?x27777 (bvsub ?x54519 (bvmul (bvsdiv (bvsub ?x54519 (_ bv1 32)) (_ bv12 32)) (_ bv12 32)))))
 (let ((?x34314 (ite (or (= ?x27777 (_ bv4 32)) (= ?x27777 (_ bv6 32)) (= ?x27777 (_ bv9 32)) (= ?x27777 (_ bv11 32))) (_ bv30 32) (_ bv31 32))))
 (let (($x11695 (and (= (bvsmod (bvsdiv (bvsub ?x54519 (_ bv1 32)) (_ bv12 32)) (_ bv4 32)) (_ bv0 32)) (and (distinct (bvsmod (bvsdiv (bvsub ?x54519 (_ bv1 32)) (_ bv12 32)) (_ bv100 32)) (_ bv0 32)) true))))
 (let ((?x53328 (ite (or $x11695 (= (bvsmod (bvsdiv (bvsub ?x54519 (_ bv1 32)) (_ bv12 32)) (_ bv400 32)) (_ bv0 32))) (_ bv29 32) (_ bv28 32))))
 (bvslt x_beta (ite (= ?x27777 (_ bv2 32)) ?x53328 ?x34314))))))))
(assert
 (bvsle (_ bv4294966096 32) y_months))
(assert
 (bvsge (_ bv1199 32) y_months))
(assert
 (bvsle (_ bv0 32) y_beta))
(assert
 (let ((?x18099 (bvadd y_months (_ bv24003 32))))
 (let ((?x9440 (bvsub ?x18099 (bvmul (bvsdiv (bvsub ?x18099 (_ bv1 32)) (_ bv12 32)) (_ bv12 32)))))
 (let ((?x83877 (ite (or (= ?x9440 (_ bv4 32)) (= ?x9440 (_ bv6 32)) (= ?x9440 (_ bv9 32)) (= ?x9440 (_ bv11 32))) (_ bv30 32) (_ bv31 32))))
 (let (($x53915 (and (= (bvsmod (bvsdiv (bvsub ?x18099 (_ bv1 32)) (_ bv12 32)) (_ bv4 32)) (_ bv0 32)) (and (distinct (bvsmod (bvsdiv (bvsub ?x18099 (_ bv1 32)) (_ bv12 32)) (_ bv100 32)) (_ bv0 32)) true))))
 (let ((?x72802 (ite (or $x53915 (= (bvsmod (bvsdiv (bvsub ?x18099 (_ bv1 32)) (_ bv12 32)) (_ bv400 32)) (_ bv0 32))) (_ bv29 32) (_ bv28 32))))
 (bvslt y_beta (ite (= ?x9440 (_ bv2 32)) ?x72802 ?x83877))))))))
(assert
 (let (($x83194 (bvsle (_ bv30 32) x_beta)))
 (or (bvsgt x_months (bvsub (bvadd (bvmul (_ bv2019 32) (_ bv12 32)) (_ bv12 32)) (_ bv24003 32))) (and (= x_months (bvsub (bvadd (bvmul (_ bv2019 32) (_ bv12 32)) (_ bv12 32)) (_ bv24003 32))) $x83194))))
(assert
 (let (($x58411 (and (= x_months (bvsub (bvadd (bvmul (_ bv2020 32) (_ bv12 32)) (_ bv2 32)) (_ bv24003 32))) (bvsge (_ bv0 32) x_beta))))
 (or (bvslt x_months (bvsub (bvadd (bvmul (_ bv2020 32) (_ bv12 32)) (_ bv2 32)) (_ bv24003 32))) $x58411)))
(assert
 (let ((?x73168 (bvadd x_beta (_ bv1 32))))
 (let ((?x35915 (bvsdiv (bvsub (bvadd (bvadd x_months (_ bv12 32)) (_ bv24003 32)) (_ bv1 32)) (_ bv12 32))))
 (let ((?x7130 (bvadd (bvadd x_months (_ bv12 32)) (_ bv24003 32))))
 (let ((?x37956 (bvsub ?x7130 (bvmul ?x35915 (_ bv12 32)))))
 (let ((?x88772 (ite (or (= ?x37956 (_ bv4 32)) (= ?x37956 (_ bv6 32)) (= ?x37956 (_ bv9 32)) (= ?x37956 (_ bv11 32))) (_ bv30 32) (_ bv31 32))))
 (let (($x80230 (or (and (= (bvsmod ?x35915 (_ bv4 32)) (_ bv0 32)) (and (distinct (bvsmod ?x35915 (_ bv100 32)) (_ bv0 32)) true)) (= (bvsmod ?x35915 (_ bv400 32)) (_ bv0 32)))))
 (let ((?x44422 (ite (= ?x37956 (_ bv2 32)) (ite $x80230 (_ bv29 32) (_ bv28 32)) ?x88772)))
 (let (($x19733 (bvsgt (_ bv1 32) ?x73168)))
 (let ((?x77199 (ite $x19733 (_ bv1 32) (ite (bvsgt ?x73168 ?x44422) ?x44422 ?x73168))))
 (let ((?x86458 (ite (bvsgt (_ bv1 32) ?x77199) (_ bv1 32) (ite (bvsgt ?x77199 ?x44422) ?x44422 ?x77199))))
 (let ((?x60245 (ite (= (_ bv2 32) ?x37956) (ite $x80230 (_ bv31 32) (_ bv31 32)) (ite (= (_ bv1 32) ?x37956) (ite $x80230 (_ bv0 32) (_ bv0 32)) (_ bv0 32)))))
 (let ((?x53340 (ite (= (_ bv4 32) ?x37956) (ite $x80230 (_ bv91 32) (_ bv90 32)) (ite (= (_ bv3 32) ?x37956) (ite $x80230 (_ bv60 32) (_ bv59 32)) ?x60245))))
 (let ((?x28406 (ite (= (_ bv6 32) ?x37956) (ite $x80230 (_ bv152 32) (_ bv151 32)) (ite (= (_ bv5 32) ?x37956) (ite $x80230 (_ bv121 32) (_ bv120 32)) ?x53340))))
 (let ((?x63577 (ite (= (_ bv8 32) ?x37956) (ite $x80230 (_ bv213 32) (_ bv212 32)) (ite (= (_ bv7 32) ?x37956) (ite $x80230 (_ bv182 32) (_ bv181 32)) ?x28406))))
 (let ((?x77695 (ite (= (_ bv10 32) ?x37956) (ite $x80230 (_ bv274 32) (_ bv273 32)) (ite (= (_ bv9 32) ?x37956) (ite $x80230 (_ bv244 32) (_ bv243 32)) ?x63577))))
 (let ((?x51824 (ite (= (_ bv12 32) ?x37956) (ite $x80230 (_ bv335 32) (_ bv334 32)) (ite (= (_ bv11 32) ?x37956) (ite $x80230 (_ bv305 32) (_ bv304 32)) ?x77695))))
 (let ((?x17796 (bvadd (bvmul (_ bv365 32) (bvsub ?x35915 (_ bv1 32))) (bvsdiv (bvsub ?x35915 (_ bv1 32)) (_ bv4 32)))))
 (let ((?x27255 (bvadd (bvsub ?x17796 (bvsdiv (bvsub ?x35915 (_ bv1 32)) (_ bv100 32))) (bvsdiv (bvsub ?x35915 (_ bv1 32)) (_ bv400 32)))))
 (let ((?x31783 (bvadd (bvadd (bvsub (bvadd (bvadd ?x27255 ?x51824) (bvsub ?x86458 (_ bv1 32))) (_ bv730179 32)) (_ bv0 32)) (_ bv730179 32))))
 (let ((?x74596 (bvsmod ?x31783 (_ bv146097 32))))
 (let ((?x27254 (bvsdiv ?x74596 (_ bv36524 32))))
 (let ((?x18806 (ite (bvsle (_ bv4 32) ?x27254) (_ bv3 32) ?x27254)))
 (let ((?x84395 (bvsub ?x74596 (bvmul ?x18806 (_ bv36524 32)))))
 (let ((?x1621 (bvsmod ?x84395 (_ bv1461 32))))
 (let ((?x41747 (bvsdiv ?x1621 (_ bv365 32))))
 (let ((?x52849 (ite (bvsle (_ bv4 32) ?x41747) (_ bv3 32) ?x41747)))
 (let ((?x66905 (bvadd (bvadd (bvmul (bvsdiv ?x31783 (_ bv146097 32)) (_ bv400 32)) (bvmul ?x18806 (_ bv100 32))) (bvmul (bvsdiv ?x84395 (_ bv1461 32)) (_ bv4 32)))))
 (let ((?x69104 (bvadd (bvadd ?x66905 ?x52849) (_ bv1 32))))
 (let (($x19631 (or (and (= (bvsmod ?x69104 (_ bv4 32)) (_ bv0 32)) (and (distinct (bvsmod ?x69104 (_ bv100 32)) (_ bv0 32)) true)) (= (bvsmod ?x69104 (_ bv400 32)) (_ bv0 32)))))
 (let ((?x69185 (bvsub ?x1621 (bvmul ?x52849 (_ bv365 32)))))
 (let ((?x74312 (ite $x19631 (_ bv31 32) (_ bv31 32))))
 (let (($x50542 (bvsge ?x69185 ?x74312)))
 (let ((?x63836 (ite $x50542 (bvadd (bvsub ?x69185 ?x74312) (_ bv1 32)) (bvadd (bvsub ?x69185 (ite $x19631 (_ bv0 32) (_ bv0 32))) (_ bv1 32)))))
 (let ((?x5279 (ite $x19631 (_ bv60 32) (_ bv59 32))))
 (let (($x39204 (bvsge ?x69185 ?x5279)))
 (let ((?x5782 (ite $x19631 (_ bv91 32) (_ bv90 32))))
 (let (($x69282 (bvsge ?x69185 ?x5782)))
 (let ((?x6587 (ite $x69282 (bvadd (bvsub ?x69185 ?x5782) (_ bv1 32)) (ite $x39204 (bvadd (bvsub ?x69185 ?x5279) (_ bv1 32)) ?x63836))))
 (let ((?x38283 (ite $x19631 (_ bv121 32) (_ bv120 32))))
 (let (($x12362 (bvsge ?x69185 ?x38283)))
 (let ((?x15920 (ite $x19631 (_ bv152 32) (_ bv151 32))))
 (let (($x70193 (bvsge ?x69185 ?x15920)))
 (let ((?x7331 (ite $x70193 (bvadd (bvsub ?x69185 ?x15920) (_ bv1 32)) (ite $x12362 (bvadd (bvsub ?x69185 ?x38283) (_ bv1 32)) ?x6587))))
 (let ((?x63426 (ite $x19631 (_ bv182 32) (_ bv181 32))))
 (let (($x45654 (bvsge ?x69185 ?x63426)))
 (let ((?x20982 (ite $x19631 (_ bv213 32) (_ bv212 32))))
 (let (($x64576 (bvsge ?x69185 ?x20982)))
 (let ((?x27417 (ite $x64576 (bvadd (bvsub ?x69185 ?x20982) (_ bv1 32)) (ite $x45654 (bvadd (bvsub ?x69185 ?x63426) (_ bv1 32)) ?x7331))))
 (let ((?x19840 (ite $x19631 (_ bv244 32) (_ bv243 32))))
 (let (($x86127 (bvsge ?x69185 ?x19840)))
 (let ((?x29235 (ite $x19631 (_ bv274 32) (_ bv273 32))))
 (let (($x85128 (bvsge ?x69185 ?x29235)))
 (let ((?x19812 (ite $x85128 (bvadd (bvsub ?x69185 ?x29235) (_ bv1 32)) (ite $x86127 (bvadd (bvsub ?x69185 ?x19840) (_ bv1 32)) ?x27417))))
 (let ((?x20808 (ite $x19631 (_ bv305 32) (_ bv304 32))))
 (let (($x54504 (bvsge ?x69185 ?x20808)))
 (let ((?x75234 (ite $x19631 (_ bv335 32) (_ bv334 32))))
 (let (($x14583 (bvsge ?x69185 ?x75234)))
 (let ((?x71971 (ite $x14583 (bvadd (bvsub ?x69185 ?x75234) (_ bv1 32)) (ite $x54504 (bvadd (bvsub ?x69185 ?x20808) (_ bv1 32)) ?x19812))))
 (let (($x5114 (= (_ bv0 32) (_ bv0 32))))
 (let ((?x20300 (ite $x70193 (_ bv6 32) (ite $x12362 (_ bv5 32) (ite $x69282 (_ bv4 32) (ite $x39204 (_ bv3 32) (ite $x50542 (_ bv2 32) (_ bv1 32))))))))
 (let ((?x19303 (ite $x54504 (_ bv11 32) (ite $x85128 (_ bv10 32) (ite $x86127 (_ bv9 32) (ite $x64576 (_ bv8 32) (ite $x45654 (_ bv7 32) ?x20300)))))))
 (let ((?x63469 (bvadd (bvmul (ite $x5114 ?x35915 ?x69104) (_ bv12 32)) (ite $x5114 ?x37956 (ite $x14583 (_ bv12 32) ?x19303)))))
 (and (= y_months (bvsub ?x63469 (_ bv24003 32))) (= y_beta (bvsub (ite $x5114 ?x86458 ?x71971) (_ bv1 32)))))))))))))))))))))))))))))))))))))))))))))))))))))))))))))))))))
(assert
 (let ((?x73168 (bvadd x_beta (_ bv1 32))))
(let ((?x5406 (bvsdiv (bvsub (bvadd (bvadd x_months (_ bv0 32)) (_ bv24003 32)) (_ bv1 32)) (_ bv12 32))))
(let ((?x54262 (bvadd (bvadd x_months (_ bv0 32)) (_ bv24003 32))))
(let ((?x36311 (bvsub ?x54262 (bvmul ?x5406 (_ bv12 32)))))
(let ((?x63647 (ite (or (= ?x36311 (_ bv4 32)) (= ?x36311 (_ bv6 32)) (= ?x36311 (_ bv9 32)) (= ?x36311 (_ bv11 32))) (_ bv30 32) (_ bv31 32))))
(let (($x31087 (or (and (= (bvsmod ?x5406 (_ bv4 32)) (_ bv0 32)) (and (distinct (bvsmod ?x5406 (_ bv100 32)) (_ bv0 32)) true)) (= (bvsmod ?x5406 (_ bv400 32)) (_ bv0 32)))))
(let ((?x83663 (ite (= ?x36311 (_ bv2 32)) (ite $x31087 (_ bv29 32) (_ bv28 32)) ?x63647)))
(let (($x19733 (bvsgt (_ bv1 32) ?x73168)))
(let ((?x11309 (ite $x19733 (_ bv1 32) (ite (bvsgt ?x73168 ?x83663) ?x83663 ?x73168))))
(let ((?x30051 (ite (bvsgt (_ bv1 32) ?x11309) (_ bv1 32) (ite (bvsgt ?x11309 ?x83663) ?x83663 ?x11309))))
(let ((?x23564 (ite (= (_ bv2 32) ?x36311) (ite $x31087 (_ bv31 32) (_ bv31 32)) (ite (= (_ bv1 32) ?x36311) (ite $x31087 (_ bv0 32) (_ bv0 32)) (_ bv0 32)))))
(let ((?x25285 (ite (= (_ bv4 32) ?x36311) (ite $x31087 (_ bv91 32) (_ bv90 32)) (ite (= (_ bv3 32) ?x36311) (ite $x31087 (_ bv60 32) (_ bv59 32)) ?x23564))))
(let ((?x71830 (ite (= (_ bv6 32) ?x36311) (ite $x31087 (_ bv152 32) (_ bv151 32)) (ite (= (_ bv5 32) ?x36311) (ite $x31087 (_ bv121 32) (_ bv120 32)) ?x25285))))
(let ((?x3826 (ite (= (_ bv8 32) ?x36311) (ite $x31087 (_ bv213 32) (_ bv212 32)) (ite (= (_ bv7 32) ?x36311) (ite $x31087 (_ bv182 32) (_ bv181 32)) ?x71830))))
(let ((?x19276 (ite (= (_ bv10 32) ?x36311) (ite $x31087 (_ bv274 32) (_ bv273 32)) (ite (= (_ bv9 32) ?x36311) (ite $x31087 (_ bv244 32) (_ bv243 32)) ?x3826))))
(let ((?x2028 (ite (= (_ bv12 32) ?x36311) (ite $x31087 (_ bv335 32) (_ bv334 32)) (ite (= (_ bv11 32) ?x36311) (ite $x31087 (_ bv305 32) (_ bv304 32)) ?x19276))))
(let ((?x22617 (bvadd (bvmul (_ bv365 32) (bvsub ?x5406 (_ bv1 32))) (bvsdiv (bvsub ?x5406 (_ bv1 32)) (_ bv4 32)))))
(let ((?x20748 (bvadd (bvsub ?x22617 (bvsdiv (bvsub ?x5406 (_ bv1 32)) (_ bv100 32))) (bvsdiv (bvsub ?x5406 (_ bv1 32)) (_ bv400 32)))))
(let ((?x73025 (bvadd (bvadd (bvsub (bvadd (bvadd ?x20748 ?x2028) (bvsub ?x30051 (_ bv1 32))) (_ bv730179 32)) (_ bv365 32)) (_ bv730179 32))))
(let ((?x5813 (bvsmod ?x73025 (_ bv146097 32))))
(let ((?x30735 (bvsdiv ?x5813 (_ bv36524 32))))
(let ((?x86979 (ite (bvsle (_ bv4 32) ?x30735) (_ bv3 32) ?x30735)))
(let ((?x38070 (bvsub ?x5813 (bvmul ?x86979 (_ bv36524 32)))))
(let ((?x37450 (bvsmod ?x38070 (_ bv1461 32))))
(let ((?x66437 (bvsdiv ?x37450 (_ bv365 32))))
(let ((?x6230 (ite (bvsle (_ bv4 32) ?x66437) (_ bv3 32) ?x66437)))
(let ((?x91090 (bvadd (bvadd (bvmul (bvsdiv ?x73025 (_ bv146097 32)) (_ bv400 32)) (bvmul ?x86979 (_ bv100 32))) (bvmul (bvsdiv ?x38070 (_ bv1461 32)) (_ bv4 32)))))
(let ((?x3220 (bvadd (bvadd ?x91090 ?x6230) (_ bv1 32))))
(let (($x40955 (or (and (= (bvsmod ?x3220 (_ bv4 32)) (_ bv0 32)) (and (distinct (bvsmod ?x3220 (_ bv100 32)) (_ bv0 32)) true)) (= (bvsmod ?x3220 (_ bv400 32)) (_ bv0 32)))))
(let ((?x3168 (bvsub ?x37450 (bvmul ?x6230 (_ bv365 32)))))
(let ((?x43771 (ite $x40955 (_ bv31 32) (_ bv31 32))))
(let (($x26735 (bvsge ?x3168 ?x43771)))
(let ((?x86533 (ite $x26735 (bvadd (bvsub ?x3168 ?x43771) (_ bv1 32)) (bvadd (bvsub ?x3168 (ite $x40955 (_ bv0 32) (_ bv0 32))) (_ bv1 32)))))
(let ((?x27049 (ite $x40955 (_ bv60 32) (_ bv59 32))))
(let (($x65205 (bvsge ?x3168 ?x27049)))
(let ((?x40044 (ite $x40955 (_ bv91 32) (_ bv90 32))))
(let (($x64055 (bvsge ?x3168 ?x40044)))
(let ((?x22499 (ite $x64055 (bvadd (bvsub ?x3168 ?x40044) (_ bv1 32)) (ite $x65205 (bvadd (bvsub ?x3168 ?x27049) (_ bv1 32)) ?x86533))))
(let ((?x86785 (ite $x40955 (_ bv121 32) (_ bv120 32))))
(let (($x62450 (bvsge ?x3168 ?x86785)))
(let ((?x49659 (ite $x40955 (_ bv152 32) (_ bv151 32))))
(let (($x76853 (bvsge ?x3168 ?x49659)))
(let ((?x88762 (ite $x76853 (bvadd (bvsub ?x3168 ?x49659) (_ bv1 32)) (ite $x62450 (bvadd (bvsub ?x3168 ?x86785) (_ bv1 32)) ?x22499))))
(let ((?x42162 (ite $x40955 (_ bv182 32) (_ bv181 32))))
(let (($x49808 (bvsge ?x3168 ?x42162)))
(let ((?x43212 (ite $x40955 (_ bv213 32) (_ bv212 32))))
(let (($x83779 (bvsge ?x3168 ?x43212)))
(let ((?x70400 (ite $x83779 (bvadd (bvsub ?x3168 ?x43212) (_ bv1 32)) (ite $x49808 (bvadd (bvsub ?x3168 ?x42162) (_ bv1 32)) ?x88762))))
(let ((?x84343 (ite $x40955 (_ bv244 32) (_ bv243 32))))
(let (($x14554 (bvsge ?x3168 ?x84343)))
(let ((?x56094 (ite $x40955 (_ bv274 32) (_ bv273 32))))
(let (($x5646 (bvsge ?x3168 ?x56094)))
(let ((?x30661 (ite $x5646 (bvadd (bvsub ?x3168 ?x56094) (_ bv1 32)) (ite $x14554 (bvadd (bvsub ?x3168 ?x84343) (_ bv1 32)) ?x70400))))
(let ((?x10850 (ite $x40955 (_ bv305 32) (_ bv304 32))))
(let (($x88890 (bvsge ?x3168 ?x10850)))
(let ((?x63780 (ite $x40955 (_ bv335 32) (_ bv334 32))))
(let (($x68424 (bvsge ?x3168 ?x63780)))
(let ((?x86878 (ite $x68424 (bvadd (bvsub ?x3168 ?x63780) (_ bv1 32)) (ite $x88890 (bvadd (bvsub ?x3168 ?x10850) (_ bv1 32)) ?x30661))))
(let (($x18598 (= (_ bv365 32) (_ bv0 32))))
(let ((?x77942 (ite $x76853 (_ bv6 32) (ite $x62450 (_ bv5 32) (ite $x64055 (_ bv4 32) (ite $x65205 (_ bv3 32) (ite $x26735 (_ bv2 32) (_ bv1 32))))))))
(let ((?x58907 (ite $x88890 (_ bv11 32) (ite $x5646 (_ bv10 32) (ite $x14554 (_ bv9 32) (ite $x83779 (_ bv8 32) (ite $x49808 (_ bv7 32) ?x77942)))))))
(let ((?x60326 (ite $x68424 (_ bv12 32) ?x58907)))
(let ((?x54367 (bvsub (bvadd (bvmul (ite $x18598 ?x5406 ?x3220) (_ bv12 32)) (ite $x18598 ?x36311 ?x60326)) (_ bv24003 32))))
(let (($x13067 (and (= y_months ?x54367) (= y_beta (bvsub (ite $x18598 ?x30051 ?x86878) (_ bv1 32))))))
(not $x13067))))))))))))))))))))))))))))))))))))))))))))))))))))))))))))))))))
(check-sat)
